set SITI := 1 2 3 4 5;
set AREE := A B C D E;

param COSTI:=
1 18
2 40
3 5
4 21
5 16
;

param REQUISITI :=
A 1
B 1
C 1
D 1
E 1
;

param COPERTURA :
  1 2 3 4 5 :=
A 0 1 1 1 0
B 1 0 0 0 1
C 1 1 0 1 0
D 0 1 0 1 1
E 1 1 0 0 1
;
